language ESSENCE' 1.0

letting pos_FunctionND be
        [[1, 3; int(1..2)], [2, 5; int(1..2)], [4, 8; int(1..2)], [6, 11; int(1..2)], [12, 18; int(1..2)],
         [14, 21; int(1..2)], [15, 23; int(1..2)], [19, 28; int(1..2)], [20, 30; int(1..2)], [16, 27; int(1..2)],
         [17, 29; int(1..2)], [13, 26; int(1..2)], [10, 24; int(1..2)], [7, 22; int(1..2)], [9, 25; int(1..2)];
             int(1..15)]
$ Visualisation for pos_FunctionND
$  1  3
$  2  5
$  4  8
$  6 11
$ 12 18
$ 14 21
$ 15 23
$ 19 28
$ 20 30
$ 16 27
$ 17 29
$ 13 26
$ 10 24
$  7 22
$  9 25

letting seq_ExplicitBounded_Length be 30
letting seq_ExplicitBounded_Values be
        [1, 2, 1, 3, 2, 4, 14, 3, 15, 13, 4, 5, 12, 6, 7, 10, 11, 5, 8, 9, 6, 14, 7, 13, 15, 12, 10, 8, 11, 9;
             int(1..30)]
